; benchmark generated from python API
(set-info :status unknown)
(declare-fun W_S1_V1 () Bool)
(declare-fun W_S2_V1 () Bool)
(declare-fun W_S1_V2 () Bool)
(declare-fun W_S2_V2 () Bool)
(declare-fun W_S1_V3 () Bool)
(declare-fun W_S2_V3 () Bool)
(declare-fun W_S1_V4 () Bool)
(declare-fun W_S2_V4 () Bool)
(declare-fun W_S1_V5 () Bool)
(declare-fun W_S2_V5 () Bool)
(declare-fun W_S1_V6 () Bool)
(declare-fun W_S2_V6 () Bool)
(declare-fun R_S2_V1 () Bool)
(declare-fun R_S2_V2 () Bool)
(declare-fun R_S2_V3 () Bool)
(declare-fun R_S2_V4 () Bool)
(declare-fun R_S2_V5 () Bool)
(declare-fun R_S2_V6 () Bool)
(declare-fun R_S1_V1 () Bool)
(declare-fun R_E1_V1 () Bool)
(declare-fun R_E1_V2 () Bool)
(declare-fun R_E1_V3 () Bool)
(declare-fun R_E1_V4 () Bool)
(declare-fun R_E1_V5 () Bool)
(declare-fun R_E1_V6 () Bool)
(assert
 (forall ((V6_0 Int) )(forall ((V5_0 Int) )(forall ((V4_0 Int) )(forall ((V3_0 Int) )(forall ((V2_0 Int) )(forall ((V1_0 Int) )(forall ((S2_V2_!168 Int) )(forall ((S2_V2_!181 Int) )(forall ((S2_V3_!167 Int) )(forall ((S2_V3_!180 Int) )(forall ((S1_V5_!159 Int) )(forall ((S1_V5_!172 Int) )(forall ((E1_!157 Int) )(forall ((E1_!170 Int) )(forall ((E1_!183 Int) )(forall ((S1_V4_!160 Int) )(forall ((S1_V4_!173 Int) )(forall ((S2_V4_!166 Int) )(forall ((S2_V4_!179 Int) )(forall ((S1_V6_!158 Int) )(forall ((S1_V6_!171 Int) )(forall ((S2_V5_!165 Int) )(forall ((S2_V5_!178 Int) )(forall ((S1_V1_!163 Int) )(forall ((S1_V1_!176 Int) )(forall ((S2_V6_!164 Int) )(forall ((S2_V6_!177 Int) )(forall ((S1_V3_!161 Int) )(forall ((S1_V3_!174 Int) )(forall ((S1_V2_!162 Int) )(forall ((S1_V2_!175 Int) )(forall ((S2_V1_!169 Int) )(forall ((S2_V1_!182 Int) )(let ((?x1511 (ite W_S1_V1 S1_V1_!176 E1_!170)))
 (let ((?x538 (ite W_S2_V1 S2_V1_!182 ?x1511)))
 (let ((?x5847 (ite W_S1_V1 S1_V1_!163 E1_!157)))
 (let ((?x3685 (ite W_S2_V1 S2_V1_!169 ?x5847)))
 (let ((?x4022 (ite W_S1_V2 S1_V2_!175 V2_0)))
 (let ((?x2872 (ite W_S2_V2 S2_V2_!181 ?x4022)))
 (let ((?x219 (ite W_S1_V2 S1_V2_!162 V2_0)))
 (let ((?x6028 (ite W_S2_V2 S2_V2_!168 ?x219)))
 (let ((?x356 (ite W_S1_V3 S1_V3_!174 V3_0)))
 (let ((?x2768 (ite W_S2_V3 S2_V3_!180 ?x356)))
 (let (($x2015 (= (ite W_S2_V3 S2_V3_!167 (+ 1 (ite W_S1_V3 S1_V3_!161 V3_0))) (+ ?x2768 ?x2872 (* (- 1) E1_!183)))))
 (let ((?x4165 (ite W_S1_V4 S1_V4_!173 V4_0)))
 (let ((?x3355 (ite W_S2_V4 S2_V4_!179 ?x4165)))
 (let ((?x4000 (ite W_S1_V5 S1_V5_!172 V5_0)))
 (let ((?x3245 (ite W_S2_V5 S2_V5_!178 ?x4000)))
 (let ((?x3188 (ite W_S1_V6 S1_V6_!171 V6_0)))
 (let ((?x3254 (ite W_S2_V6 S2_V6_!177 ?x3188)))
 (let (($x1596 (and (= (ite W_S2_V6 S2_V6_!164 (ite W_S1_V6 S1_V6_!158 V6_0)) ?x3254) (= (ite W_S2_V5 S2_V5_!165 (ite W_S1_V5 S1_V5_!159 V5_0)) ?x3245) (= (ite W_S2_V4 S2_V4_!166 (ite W_S1_V4 S1_V4_!160 V4_0)) ?x3355) $x2015 (= ?x6028 ?x2872) (= ?x3685 ?x538))))
 (let (($x2713 (and (not (<= V2_0 E1_!157)) (>= ?x3685 (+ (- 1) ?x6028)) (not (<= V2_0 E1_!170)) (>= ?x538 (+ (- 1) ?x2872)))))
 (let (($x2456 (= S2_V1_!169 S2_V1_!182)))
 (let (($x4275 (and (or (not R_S2_V6) (= (ite W_S1_V6 S1_V6_!158 V6_0) ?x3188)) (or (not R_S2_V5) (= (ite W_S1_V5 S1_V5_!159 V5_0) ?x4000)) (or (not R_S2_V4) (= (ite W_S1_V4 S1_V4_!160 V4_0) ?x4165)) (or (not R_S2_V3) (= (ite W_S1_V3 S1_V3_!161 V3_0) (+ (- 1) ?x356))) (or (not R_S2_V2) (= ?x219 ?x4022)) (or (not R_S2_V1) (= ?x5847 ?x1511)))))
 (let (($x1518 (not $x4275)))
 (let (($x2711 (and (or (not R_E1_V6) (= ?x3254 V6_0)) (or (not R_E1_V5) (= ?x3245 V5_0)) (or (not R_E1_V4) (= ?x3355 V4_0)) (or (not R_E1_V3) (= ?x2768 V3_0)) (or (not R_E1_V2) (= ?x2872 V2_0)) (or (not R_E1_V1) (= ?x538 (+ (- 1) V1_0))))))
 (let (($x577 (and (or (not R_E1_V6) (= V6_0 ?x3254)) (or (not R_E1_V5) (= V5_0 ?x3245)) (or (not R_E1_V4) (= V4_0 ?x3355)) (or (not R_E1_V3) (= V3_0 ?x2768)) (or (not R_E1_V2) (= V2_0 ?x2872)) (or (not R_E1_V1) (= V1_0 (+ 1 ?x538))))))
 (let (($x2486 (= E1_!157 E1_!170)))
 (let (($x3724 (and (or $x1518 (= S2_V2_!168 S2_V2_!181)) (or $x1518 (= S2_V3_!167 S2_V3_!180)) (or (not (or (not R_S1_V1) (= E1_!170 E1_!157))) (= S1_V5_!172 S1_V5_!159)) $x2486 (or (not $x577) (= E1_!157 E1_!183)) (or (not $x2711) (= E1_!183 E1_!170)) (or (not (or (not R_S1_V1) (= E1_!170 E1_!157))) (= S1_V4_!173 S1_V4_!160)) (or $x1518 (= S2_V4_!166 S2_V4_!179)) (or (not (or (not R_S1_V1) (= E1_!170 E1_!157))) (= S1_V6_!171 S1_V6_!158)) (or $x1518 (= S2_V5_!165 S2_V5_!178)) (or (not (or (not R_S1_V1) $x2486)) (= S1_V1_!163 S1_V1_!176)) (or $x1518 (= S2_V6_!164 S2_V6_!177)) (or (not (or (not R_S1_V1) $x2486)) (= S1_V3_!161 S1_V3_!174)) (or (not (or (not R_S1_V1) (= E1_!170 E1_!157))) (= S1_V2_!175 S1_V2_!162)) (or $x1518 $x2456))))
 (or (not $x3724) (not $x2713) $x1596))))))))))))))))))))))))))))
 )
 )
 )
 )
 )
 )
 )
 )
 )
 )
 )
 )
 )
 )
 )
 )
 )
 )
 )
 )
 )
 )
 )
 )
 )
 )
 )
 )
 )
 )
 )
 )
 )
(check-sat)
